artifact/ReVEAL/exp2_solver1/mfs/mfs_64_result_kissat/64_64_U1_WT_LF_Multgen_mfs.result
c ---- [ banner ] ------------------------------------------------------------
c
c Kissat SAT Solver
c 
c Copyright (c) 2021-2024 Armin Biere University of Freiburg
c Copyright (c) 2019-2021 Armin Biere Johannes Kepler University Linz
c 
c Version 4.0.1 43f02cf3e992cb44653b35e5cb26f93281552ae0
c gcc (Ubuntu 13.2.0-23ubuntu4) 13.2.0 -W -Wall -O3 -DNDEBUG
c Thu Sep 12 12:27:46 CEST 2024 Linux abryzen9 6.8.0-41-generic x86_64
c
c ---- [ parsing ] -----------------------------------------------------------
c
c opened and reading DIMACS file:
c
c   /data/artifact/AMulet2.0_artifact/exp4/cnf_mfs_64/64_64_U1_WT_LF_Multgen_mfs.cnf
c
c parsed 'p cnf 36525 142050' header
c closing input after reading 2764689 bytes (3 MB)
c finished parsing after 0.02 seconds
c
c ---- [ options ] -----------------------------------------------------------
c
c --stable=0                       (different from default '1')
c
c ---- [ solving ] -----------------------------------------------------------
c
c  seconds switched rate     size/glue tier1  binary           remaining
c         MB reductions conflicts size  tier2     irredundant
c          level restarts redundant glue  trail           variables
c
c *  0.02 11 0 0 0  0 0   0   0 0.0 0 0 0 0 0% 29469 112579 36522 100%
c (  0.03 13 0 0 0  0 0   0   0 0.0 0 0 0 0 0% 29469 112579 36522 100%
c .  0.04 13 0 0 0  0 0   0   0 0.0 0 0 0 0 0% 29465 112579 36522 100%
c c  0.10 21 0 0 0  0 0   0   0 0.0 0 0 0 0 0% 36691 98347 32909 90%
c d  0.11 21 0 0 0  0 0   0   0 0.0 0 0 0 0 0% 29465 98347 32909 90%
c =  0.15 21 0 0 0  0 0   0   0 0.0 0 0 0 0 0% 29901 98347 32619 89%
c d  0.15 21 0 0 0  0 0   0   0 0.0 0 0 0 0 0% 29321 98347 32619 89%
c f  0.23 20 0 0 0  0 0   0   0 0.0 0 0 0 0 0% 32192 93740 34353 94%
c e  0.34 28 0 0 0  0 0   0   0 0.0 0 0 0 0 0% 10495 107751 23242 64%
c )  0.34 28 0 0 0  0 0   0   0 0.0 0 0 0 0 0% 10495 107751 23242 64%
c {  0.36 28 0 0 0  0 0   0   0 0.0 0 0 2 6 0% 10495 107751 23242 64%
c -  0.49 30 139 0 1 235 28 1001 732 2.7 12 4 2 8 18% 10577 107741 23242 64%
c -  0.63 30 191 0 2 384 35 2004 1478 3.1 15 5 3 8 24% 10628 107724 23242 64%
c c  0.72 25 244 0 2 422 35 2503 1915 3.2 15 5 2 8 25% 10653 107711 23238 64%
c d  0.72 25 244 0 2 422 35 2503 1914 3.2 15 5 2 8 25% 10645 107711 23238 64%
c u  0.73 25 244 0 2 422 35 2503 1507 3.2 15 5 2 8 25% 10652 107711 23238 64%
c v  0.74 25 244 0 2 422 35 2503 1177 3.2 15 5 2 8 25% 10652 107711 23238 64%
c w  0.75 25 244 0 2 422 35 2503 1174 3.2 15 5 2 8 25% 10652 107711 23238 64%
c x  0.77 25 244 0 2 422 35 2503 1174 3.2 15 5 2 8 25% 10755 107519 23238 64%
c =  0.81 25 244 0 2 422 35 2503 1174 3.2 15 5 2 8 25% 10999 107519 23116 63%
c
c  seconds   switched   rate       size/glue tier1    binary           remaining
c         MB  reductions conflicts       size  tier2      irredundant
c           level restarts    redundant    glue   trail           variables
c
c d  0.82 25 244 0 2 422 35 2503 1173 3.2 15 5 2 8 25% 10753 107519 23116 63%
c f  0.84 25 244 0 2 422 35 2503 1173 3.2 15 5 2 8 25% 11394 106259 23734 65%
c u  0.86 28 244 0 2 422 35 2503 1126 3.2 15 5 2 8 25% 11395 106259 23734 65%
c v  0.87 28 244 0 2 422 35 2503 1084 3.2 15 5 2 8 25% 11395 106259 23734 65%
c w  0.89 28 244 0 2 422 35 2503 1077 3.2 15 5 2 8 25% 11395 106259 23734 65%
c x  0.90 28 244 0 2 422 35 2503 1077 3.2 15 5 2 8 25% 11395 106041 23734 65%
c =  0.94 28 244 0 2 422 35 2503 1077 3.2 15 5 2 8 25% 11685 106041 23589 65%
c d  0.95 28 244 0 2 422 35 2503 1076 3.2 15 5 2 8 25% 11350 106041 23589 65%
c f  0.98 28 244 0 2 422 35 2503 1076 3.2 15 5 2 8 25% 11711 105494 23772 65%
c -  1.18 28 239 0 3 581 37 3420 1668 3.5 17 5 2 8 28% 11737 105494 23772 65%
c -  1.47 28 295 0 4 866 41 5153 2858 3.7 19 5 2 8 26% 11788 105493 23772 65%
c -  1.83 28 291 0 5 1126 39 7153 3838 3.1 24 8 2 8 25% 11891 105492 23772 65%
c c  1.98 28 281 0 5 1147 37 7708 4303 3.2 25 8 2 8 26% 11919 105361 23731 65%
c d  1.99 28 281 0 5 1147 37 7708 4282 3.2 25 8 2 8 26% 11837 105361 23731 65%
c u  2.01 28 281 0 5 1147 37 7708 3425 3.2 25 8 2 8 26% 11852 105361 23731 65%
c v  2.04 28 281 0 5 1147 37 7708 2916 3.2 25 8 2 8 26% 11854 105361 23731 65%
c w  2.10 28 281 0 5 1147 37 7708 2906 3.2 25 8 2 8 26% 11854 105361 23731 65%
c x  2.14 28 281 0 5 1147 37 7708 2906 3.2 25 8 2 8 26% 11870 104356 23731 65%
c =  2.28 28 281 0 5 1147 37 7708 2906 3.2 25 8 2 8 26% 12974 104356 23179 63%
c d  2.29 28 281 0 5 1147 37 7708 2888 3.2 25 8 2 8 26% 11735 104356 23175 63%
c
c  seconds   switched    rate       size/glue tier1    binary           remaining
c         MB  reductions  conflicts       size  tier2      irredundant
c           level  restarts    redundant    glue   trail           variables
c
c t  2.30 28 281 0 5 1147 37 7708 2888 3.2 25 8 2 8 26% 11718 104356 23175 63%
c f  2.34 28 281 0 5 1147 37 7708 2888 3.2 25 8 2 8 26% 13440 101769 24038 66%
c u  2.40 28 281 0 5 1147 37 7708 2672 3.2 25 8 2 8 26% 13441 101769 24038 66%
c v  2.42 28 281 0 5 1147 37 7708 2553 3.2 25 8 2 8 26% 13441 101769 24038 66%
c w  2.45 28 281 0 5 1147 37 7708 2547 3.2 25 8 2 8 26% 13441 101769 24038 66%
c x  2.49 28 281 0 5 1147 37 7708 2546 3.2 25 8 2 8 26% 13506 95989 24038 66%
c =  2.60 28 281 0 5 1147 37 7708 2546 3.2 25 8 2 8 26% 14278 95989 23652 65%
c d  2.61 28 281 0 5 1147 37 7708 2528 3.2 25 8 2 8 26% 13442 95989 23652 65%
c t  2.62 28 281 0 5 1147 37 7708 2528 3.2 25 8 2 8 26% 13401 95989 23652 65%
c f  2.66 28 281 0 5 1147 37 7708 2528 3.2 25 8 2 8 26% 13601 95683 23755 65%
c -  2.92 28 313 0 6 1241 35 9389 3479 3.2 25 8 2 8 26% 13660 95681 23755 65%
c o  3.00 28 307 0 6 1260 33 10081 4107 3.1 24 8 2 8 27% 13682 95678 23755 65%
c -  3.34 28 307 0 7 1410 32 11838 4864 3.4 25 8 2 9 27% 13749 95675 23755 65%
c s  3.40 28 337 0 7 1429 32 12512 5442 3.3 25 7 2 9 27% 13786 94377 23755 65%
c e  3.49 28 337 0 7 1429 32 12512 5442 3.3 25 7 2 9 27% 11664 95818 21981 60%
c s  3.50 28 337 0 7 1429 32 12512 5442 3.3 25 7 2 9 27% 11668 94244 21981 60%
c e  3.52 28 337 0 7 1429 32 12512 5442 3.3 25 7 2 9 27% 11659 94253 21977 60%
c ^  3.52 28 337 0 7 1429 32 12512 5442 3.3 25 7 2 9 27% 11659 94253 21977 60%
c -  3.78 28 334 0 8 1515 30 14483 5635 3.2 23 7 2 9 26% 11695 94253 21977 60%
c d  3.95 28 352 0 8 1552 29 15789 6694 3.3 23 7 2 9 26% 11579 94248 21865 60%
c
c  seconds   switched    rate        size/glue tier1    binary          remaining
c         MB  reductions   conflicts       size  tier2      irredundant
c           level  restarts     redundant    glue   trail          variables
c
c u  3.99 28 352 0 8 1552 29 15789 5265 3.3 23 7 2 9 26% 11588 94248 21865 60%
c v  4.03 28 352 0 8 1552 29 15789 4592 3.3 23 7 2 9 26% 11589 94248 21865 60%
c w  4.09 28 352 0 8 1552 29 15789 4591 3.3 23 7 2 9 26% 11589 94248 21865 60%
c x  4.12 28 352 0 8 1552 29 15789 4591 3.3 23 7 2 9 26% 11604 93622 21865 60%
c =  4.28 28 352 0 8 1552 29 15789 4591 3.3 23 7 2 9 26% 13056 93622 21139 58%
c d  4.29 28 352 0 8 1552 29 15789 4539 3.3 23 7 2 9 26% 11283 93622 21139 58%
c t  4.31 28 352 0 8 1552 29 15789 4539 3.3 23 7 2 9 26% 11266 93622 21139 58%
c f  4.36 28 352 0 8 1552 29 15789 4539 3.3 23 7 2 9 26% 11287 93574 21152 58%
c u  4.44 28 352 0 8 1552 29 15789 4256 3.3 23 7 2 9 26% 11290 93574 21152 58%
c v  4.47 28 352 0 8 1552 29 15789 4154 3.3 23 7 2 9 26% 11290 93574 21152 58%
c w  4.54 28 352 0 8 1552 29 15789 4144 3.3 23 7 2 9 26% 11290 93574 21152 58%
c x  4.56 28 352 0 8 1552 29 15789 4144 3.3 23 7 2 9 26% 11296 93241 21152 58%
c =  4.67 30 352 0 8 1552 29 15789 4144 3.3 23 7 2 9 26% 12518 93241 20541 56%
c d  4.68 30 352 0 8 1552 29 15789 4129 3.3 23 7 2 9 26% 11033 93241 20541 56%
c t  4.69 30 352 0 8 1552 29 15789 4129 3.3 23 7 2 9 26% 11030 93241 20541 56%
c f  4.71 30 352 0 8 1552 29 15789 4129 3.3 23 7 2 9 26% 11034 93226 20546 56%
c -  4.95 30 340 0 9 1628 28 17313 4805 3.3 23 7 2 9 26% 11045 93226 20546 56%
c o  5.53 30 339 0 9 1869 28 20160 7314 3.5 24 7 2 9 27% 11104 93226 20546 56%
c -  5.60 30 338 0 10 1908 29 20313 6566 3.5 25 7 2 8 27% 11106 93226 20546 56%
c -  5.90 30 349 0 11 2057 28 23475 8262 3.5 24 7 2 8 26% 11195 93226 20546 56%
c
c  seconds   switched     rate        size/glue tier1    binary          remaining
c         MB   reductions   conflicts       size  tier2      irredundant
c           level   restarts     redundant    glue   trail          variables
c
c s  6.11 30 346 0 11 2158 28 25013 9618 3.5 24 7 2 8 26% 11242 92338 20546 56%
c e  6.20 30 346 0 11 2158 28 25013 9618 3.5 24 7 2 8 26% 10025 95720 18027 49%
c s  6.22 30 346 0 11 2158 28 25013 9618 3.5 24 7 2 8 26% 10062 92611 18027 49%
c e  6.25 30 346 0 11 2158 28 25013 9618 3.5 24 7 2 8 26% 10042 92644 18010 49%
c ^  6.25 30 346 0 11 2158 28 25013 9618 3.5 24 7 2 8 26% 10042 92644 18010 49%
c -  6.50 30 332 0 12 2249 27 26791 8168 3.4 23 7 2 8 26% 10068 92644 18010 49%
c d  6.52 30 331 0 12 2249 27 26916 8266 3.4 23 7 2 8 27% 9980 92644 17954 49%
c u  6.55 30 331 0 12 2249 27 26916 6843 3.4 23 7 2 8 27% 9999 92644 17954 49%
c v  6.57 30 331 0 12 2249 27 26916 5875 3.4 23 7 2 8 27% 10001 92644 17954 49%
c w  6.58 30 331 0 12 2249 27 26916 5874 3.4 23 7 2 8 27% 10001 92644 17954 49%
c x  6.64 30 331 0 12 2249 27 26916 5867 3.4 23 7 2 8 27% 10035 90207 17954 49%
c =  6.80 30 331 0 12 2249 27 26916 5867 3.4 23 7 2 8 27% 11567 90207 17188 47%
c d  6.81 30 331 0 12 2249 27 26916 5762 3.4 23 7 2 8 27% 9919 90207 17183 47%
c t  6.82 30 331 0 12 2249 27 26916 5762 3.4 23 7 2 8 27% 9889 90207 17183 47%
c f  6.88 30 331 0 12 2249 27 26916 5762 3.4 23 7 2 8 27% 9892 90101 17205 47%
c u  6.90 30 331 0 12 2249 27 26916 5475 3.4 23 7 2 8 27% 9893 90101 17205 47%
c v  6.92 30 331 0 12 2249 27 26916 5343 3.4 23 7 2 8 27% 9893 90101 17205 47%
c w  6.93 30 331 0 12 2249 27 26916 5340 3.4 23 7 2 8 27% 9893 90101 17205 47%
c x  7.00 30 331 0 12 2249 27 26916 5340 3.4 23 7 2 8 27% 9899 85656 17205 47%
c =  7.18 30 331 0 12 2249 27 26916 5340 3.4 23 7 2 8 27% 12231 85656 16039 44%
c
c  seconds   switched     rate        size/glue tier1    binary         remaining
c         MB   reductions   conflicts       size  tier2     irredundant
c           level   restarts     redundant    glue   trail         variables
c
c d  7.18 30 331 0 12 2249 27 26916 5161 3.4 23 7 2 8 27% 9831 85656 16039 44%
c t  7.19 30 331 0 12 2249 27 26916 5161 3.4 23 7 2 8 27% 9819 85656 16039 44%
c f  7.22 30 331 0 12 2249 27 26916 5161 3.4 23 7 2 8 27% 9823 85640 16043 44%
c -  7.60 30 306 0 13 2470 25 30255 7181 3.2 22 7 2 8 27% 9855 85639 16043 44%
c -  7.92 30 286 0 14 2695 25 33863 9021 3.2 22 7 2 8 26% 9981 85638 16043 44%
c -  8.29 30 273 0 15 2905 24 37604 10766 3.1 21 7 2 8 25% 10029 85633 16043 44%
c o  8.73 30 266 0 15 3231 24 40390 13174 3.2 21 7 2 8 25% 10074 85633 16043 44%
c c  8.87 30 267 0 15 3308 24 41243 13905 3.2 21 7 2 8 25% 10159 85287 15962 44%
c d  8.88 30 267 0 15 3308 24 41243 13750 3.2 21 7 2 8 25% 9976 85287 15948 44%
c u  8.92 30 267 0 15 3308 24 41243 11401 3.2 21 7 2 8 25% 10008 85287 15948 44%
c v  8.97 30 267 0 15 3308 24 41243 10330 3.2 21 7 2 8 25% 10013 85287 15948 44%
c w  9.00 30 267 0 15 3308 24 41243 10330 3.2 21 7 2 8 25% 10013 85287 15948 44%
c x  9.04 30 267 0 15 3308 24 41243 10329 3.2 21 7 2 8 25% 10013 79871 15948 44%
c =  9.21 30 267 0 15 3308 24 41243 10329 3.2 21 7 2 8 25% 10215 79871 15847 43%
c d  9.21 30 267 0 15 3308 24 41243 10320 3.2 21 7 2 8 25% 10001 79871 15841 43%
c t  9.22 30 267 0 15 3308 24 41243 10320 3.2 21 7 2 8 25% 9970 79871 15841 43%
c f  9.23 30 267 0 15 3308 24 41243 10320 3.2 21 7 2 8 25% 9970 79859 15845 43%
c u  9.27 30 267 0 15 3308 24 41243 9922 3.2 21 7 2 8 25% 9981 79859 15845 43%
c v  9.31 30 267 0 15 3308 24 41243 9365 3.2 21 7 2 8 25% 9987 79859 15845 43%
c w  9.37 30 267 0 15 3308 24 41243 9360 3.2 21 7 2 8 25% 9987 79859 15845 43%
c
c  seconds   switched     rate        size/glue tier1    binary         remaining
c         MB   reductions   conflicts       size  tier2     irredundant
c           level   restarts     redundant    glue   trail         variables
c
c x  9.41 30 267 0 15 3308 24 41243 9360 3.2 21 7 2 8 25% 9999 79006 15845 43%
c =  9.58 30 267 0 15 3308 24 41243 9360 3.2 21 7 2 8 25% 11173 79006 15258 42%
c d  9.59 30 267 0 15 3308 24 41243 9125 3.2 21 7 2 8 25% 9952 79006 15258 42%
c t  9.60 30 267 0 15 3308 24 41243 9125 3.2 21 7 2 8 25% 9935 79006 15258 42%
c f  9.62 30 267 0 15 3308 24 41243 9125 3.2 21 7 2 8 25% 9938 78982 15264 42%
c -  9.67 30 266 0 16 3334 24 41477 8185 3.2 21 7 2 7 25% 9942 78979 15264 42%
c - 10.06 30 266 0 17 3600 24 45477 10288 3.1 21 7 2 7 25% 9988 78979 15264 42%
c - 10.38 30 260 0 18 3835 23 49600 12407 3.1 21 7 2 7 25% 10010 78979 15264 42%
c s 10.73 30 253 0 18 4103 23 52114 14699 3.1 21 7 2 7 25% 10028 72559 15264 42%
c e 10.81 30 253 0 18 4103 23 52114 14699 3.1 21 7 2 7 25% 8390 75407 14019 38%
c s 10.82 30 253 0 18 4103 23 52114 14699 3.1 21 7 2 7 25% 8408 74478 14019 38%
c e 10.83 30 253 0 18 4103 23 52114 14699 3.1 21 7 2 7 25% 8399 74498 14009 38%
c ^ 10.83 30 253 0 18 4103 23 52114 14699 3.1 21 7 2 7 25% 8399 74498 14009 38%
c - 10.99 30 247 0 19 4210 23 53843 12671 3.1 21 7 2 7 25% 8440 74498 14009 38%
c - 11.30 30 241 0 20 4440 23 58201 14564 3.0 20 7 2 6 24% 8512 74492 14009 38%
c c 11.42 30 240 0 20 4487 23 58877 15173 3.0 20 7 2 6 24% 8565 74207 13955 38%
c d 11.43 30 240 0 20 4487 23 58877 14946 3.0 20 7 2 6 24% 8457 74207 13955 38%
c u 11.47 30 240 0 20 4487 23 58877 12148 3.0 20 7 2 6 24% 8488 74207 13955 38%
c v 11.50 30 240 0 20 4487 23 58877 10705 3.0 20 7 2 6 24% 8489 74207 13955 38%
c w 11.53 30 240 0 20 4487 23 58877 10677 3.0 20 7 2 6 24% 8489 74207 13955 38%
c
c  seconds   switched     rate         size/glue tier1    binary         remaining
c         MB   reductions   conflicts        size  tier2     irredundant
c           level   restarts      redundant    glue   trail         variables
c
c x 11.56 30 240 0 20 4487 23 58877 10677 3.0 20 7 2 6 24% 8489 74137 13955 38%
c d 11.74 30 240 0 20 4487 23 58877 10671 3.0 20 7 2 6 24% 8477 74137 13949 38%
c t 11.75 30 240 0 20 4487 23 58877 10671 3.0 20 7 2 6 24% 8451 74137 13949 38%
c b 11.75 30 240 0 20 4487 23 58877 10671 3.0 20 7 2 6 24% 8451 74137 13948 38%
c f 11.79 30 240 0 20 4487 23 58877 10671 3.0 20 7 2 6 24% 8460 74064 13958 38%
c c 11.83 30 240 0 20 4487 23 58877 10657 3.0 20 7 2 6 24% 8459 74022 13954 38%
c d 11.83 30 240 0 20 4487 23 58877 10657 3.0 20 7 2 6 24% 8451 74022 13954 38%
c u 11.87 30 240 0 20 4487 23 58877 10155 3.0 20 7 2 6 24% 8457 74022 13954 38%
c v 11.89 30 240 0 20 4487 23 58877 9917 3.0 20 7 2 6 24% 8457 74022 13954 38%
c w 11.92 30 240 0 20 4487 23 58877 9894 3.0 20 7 2 6 24% 8457 74022 13954 38%
c t 11.93 30 240 0 20 4487 23 58877 9894 3.0 20 7 2 6 24% 8455 74022 13954 38%
c - 12.32 30 229 0 21 4760 22 62675 11967 3.0 20 7 2 6 24% 8473 74021 13954 38%
c - 12.85 30 224 0 22 5184 22 67257 14511 3.0 20 7 2 6 24% 8511 74020 13954 38%
c o 13.00 30 220 0 22 5307 22 70445 17335 2.9 20 7 2 6 24% 8538 74020 13954 38%
c - 13.21 30 217 0 23 5506 22 71947 16649 2.9 20 7 2 6 24% 8548 74019 13954 38%
c - 13.86 30 211 0 24 6027 22 76742 16569 3.0 20 7 1 6 24% 8608 74019 13954 38%
c d 14.13 30 209 0 24 6230 22 79956 19222 3.0 20 7 1 6 23% 8552 74018 13899 38%
c u 14.16 30 209 0 24 6230 22 79956 17212 3.0 20 7 1 6 23% 8589 74018 13899 38%
c v 14.23 30 209 0 24 6230 22 79956 14117 3.0 20 7 1 6 23% 8601 74018 13899 38%
c w 14.28 30 209 0 24 6230 22 79956 14109 3.0 20 7 1 6 23% 8601 74018 13899 38%
c
c  seconds   switched     rate         size/glue tier1    binary         remaining
c         MB   reductions   conflicts        size  tier2     irredundant
c           level   restarts      redundant    glue   trail         variables
c
c x 14.35 30 209 0 24 6230 22 79956 14099 3.0 20 7 1 6 23% 8623 72030 13899 38%
c = 14.59 30 209 0 24 6230 22 79956 14099 3.0 20 7 1 6 23% 8743 72030 13839 38%
c d 14.60 30 209 0 24 6230 22 79956 14042 3.0 20 7 1 6 23% 8577 72030 13825 38%
c t 14.61 30 209 0 24 6230 22 79956 14042 3.0 20 7 1 6 23% 8541 72030 13825 38%
c f 14.62 30 209 0 24 6230 22 79956 14042 3.0 20 7 1 6 23% 8541 72024 13826 38%
c c 14.66 30 209 0 24 6230 22 79956 14027 3.0 20 7 1 6 23% 8553 71984 13821 38%
c d 14.66 30 209 0 24 6230 22 79956 14027 3.0 20 7 1 6 23% 8543 71984 13821 38%
c u 14.70 30 209 0 24 6230 22 79956 13544 3.0 20 7 1 6 23% 8554 71984 13821 38%
c v 14.74 30 209 0 24 6230 22 79956 12829 3.0 20 7 1 6 23% 8555 71984 13821 38%
c w 14.82 30 209 0 24 6230 22 79956 12676 3.0 20 7 1 6 23% 8555 71984 13821 38%
c x 14.87 30 209 0 24 6230 22 79956 12671 3.0 20 7 1 6 23% 8578 71208 13821 38%
c d 14.91 30 209 0 24 6230 22 79956 12668 3.0 20 7 1 6 23% 8572 71208 13818 38%
c t 14.92 30 209 0 24 6230 22 79956 12668 3.0 20 7 1 6 23% 8561 71208 13818 38%
c - 14.96 30 205 0 25 6245 21 81640 11437 2.9 20 7 1 6 23% 8591 71208 13818 38%
c - 15.66 30 199 0 26 6783 21 86640 13524 2.9 20 7 1 6 23% 8637 71206 13818 38%
c - 16.69 30 198 0 27 7602 23 91740 15713 3.0 21 7 1 5 24% 8689 71205 13818 38%
c s 17.19 30 196 0 27 7971 23 95816 19164 3.0 21 7 1 5 24% 8769 71063 13818 38%
c e 17.29 30 196 0 27 7971 23 95816 19164 3.0 21 7 1 5 24% 5804 78501 12185 33%
c 2 17.29 30 196 0 27 7971 23 95816 19164 3.0 21 7 1 5 24% 5800 78501 12185 33%
c s 17.30 30 196 0 27 7971 23 95816 19164 3.0 21 7 1 5 24% 5826 77783 12185 33%
c
c  seconds   switched     rate         size/glue tier1    binary         remaining
c         MB   reductions   conflicts        size  tier2     irredundant
c           level   restarts      redundant    glue   trail         variables
c
c e 17.32 30 196 0 27 7971 23 95816 19164 3.0 21 7 1 5 24% 5754 78021 12123 33%
c ^ 17.32 30 196 0 27 7971 23 95816 19164 3.0 21 7 1 5 24% 5754 78021 12123 33%
c - 17.37 30 201 0 28 7983 22 96937 12600 3.0 21 7 1 5 24% 5766 78019 12123 33%
c - 17.87 30 204 0 29 8356 22 102228 14471 3.0 21 7 1 5 24% 5804 78018 12123 33%
c d 18.16 30 202 0 29 8583 22 104600 16530 2.9 21 7 1 5 24% 5773 78014 12096 33%
c u 18.20 30 202 0 29 8583 22 104600 14921 2.9 21 7 1 5 24% 5796 78014 12096 33%
c v 18.24 30 202 0 29 8583 22 104600 12542 2.9 21 7 1 5 24% 5807 78014 12096 33%
c w 18.36 30 202 0 29 8583 22 104600 12374 2.9 21 7 1 5 24% 5807 78014 12096 33%
c x 18.42 30 202 0 29 8583 22 104600 12374 2.9 21 7 1 5 24% 5811 77971 12096 33%
c d 18.42 30 202 0 29 8583 22 104600 12351 2.9 21 7 1 5 24% 5789 77971 12085 33%
c t 18.43 30 202 0 29 8583 22 104600 12351 2.9 21 7 1 5 24% 5770 77971 12085 33%
c f 18.49 30 202 0 29 8583 22 104600 12351 2.9 21 7 1 5 24% 5797 77831 12097 33%
c u 18.53 30 202 0 29 8583 22 104600 11983 2.9 21 7 1 5 24% 5808 77831 12097 33%
c v 18.56 30 202 0 29 8583 22 104600 11454 2.9 21 7 1 5 24% 5813 77831 12097 33%
c w 18.66 30 202 0 29 8583 22 104600 11191 2.9 21 7 1 5 24% 5813 77831 12097 33%
c = 19.01 30 202 0 29 8583 22 104600 11191 2.9 21 7 1 5 24% 6551 77807 11725 32%
c d 19.01 30 202 0 29 8583 22 104600 10739 2.9 21 7 1 5 24% 5732 77807 11725 32%
c t 19.02 30 202 0 29 8583 22 104600 10739 2.9 21 7 1 5 24% 5702 77807 11725 32%
c f 19.04 30 202 0 29 8583 22 104600 10739 2.9 21 7 1 5 24% 5744 77595 11743 32%
c - 19.32 30 198 0 30 8818 22 107613 11474 2.9 21 7 1 5 24% 5749 77594 11743 32%
c
c  seconds   switched     rate          size/glue tier1    binary         remaining
c         MB   reductions   conflicts         size  tier2     irredundant
c           level   restarts       redundant    glue   trail         variables
c
c o 19.80 30 196 0 30 9194 22 110454 14142 2.9 21 7 1 5 25% 5763 77590 11743 32%
c - 20.00 30 197 0 31 9329 22 113091 14099 2.9 20 7 1 5 25% 5778 77590 11743 32%
c - 20.92 30 194 0 32 9961 22 118658 16303 2.9 21 7 1 5 25% 5786 77587 11743 32%
c - 21.94 30 191 0 33 10533 22 124318 17964 2.9 21 7 1 5 25% 5816 77581 11743 32%
c - 22.61 30 190 0 34 10984 22 130062 19593 2.9 22 7 1 5 25% 5854 77579 11743 32%
c c 22.97 30 188 0 34 11176 22 132858 22113 2.9 22 7 1 5 25% 5894 77409 11708 32%
c d 22.98 30 188 0 34 11176 22 132858 21944 2.9 22 7 1 5 25% 5824 77409 11708 32%
c u 23.03 30 188 0 34 11176 22 132858 19334 2.9 22 7 1 5 25% 5844 77409 11708 32%
c v 23.10 30 188 0 34 11176 22 132858 15969 2.9 22 7 1 5 25% 5854 77409 11708 32%
c w 23.21 30 188 0 34 11176 22 132858 15906 2.9 22 7 1 5 25% 5854 77409 11708 32%
c x 23.28 30 188 0 34 11176 22 132858 15906 2.9 22 7 1 5 25% 5854 77397 11708 32%
c = 23.70 30 188 0 34 11176 22 132858 15906 2.9 22 7 1 5 25% 6056 77385 11606 32%
c d 23.70 30 188 0 34 11176 22 132858 15596 2.9 22 7 1 5 25% 5829 77385 11606 32%
c t 23.71 30 188 0 34 11176 22 132858 15596 2.9 22 7 1 5 25% 5795 77385 11606 32%
c f 23.72 30 188 0 34 11176 22 132858 15596 2.9 22 7 1 5 25% 5812 77289 11614 32%
c u 23.77 30 188 0 34 11176 22 132858 14899 2.9 22 7 1 5 25% 5816 77289 11614 32%
c v 23.81 30 188 0 34 11176 22 132858 14128 2.9 22 7 1 5 25% 5819 77289 11614 32%
c w 23.95 30 188 0 34 11176 22 132858 13705 2.9 22 7 1 5 25% 5819 77289 11614 32%
c = 24.36 30 188 0 34 11176 22 132858 13705 2.9 22 7 1 5 25% 5821 77289 11613 32%
c d 24.36 30 188 0 34 11176 22 132858 13705 2.9 22 7 1 5 25% 5818 77289 11613 32%
c
c  seconds   switched      rate          size/glue tier1    binary         remaining
c         MB   reductions    conflicts         size  tier2     irredundant
c           level   restarts        redundant    glue   trail         variables
c
c t 24.37 30 188 0 34 11176 22 132858 13705 2.9 22 7 1 5 25% 5816 77289 11613 32%
c - 24.90 30 186 0 35 11474 22 135893 14163 2.9 22 8 1 5 25% 5818 77289 11613 32%
c i 25.45 30 184 0 35 11831 21 140210 18062 2.9 22 8 1 5 25% 5828 77289 11612 32%
c - 25.68 30 184 0 36 11958 21 141809 16968 2.9 22 8 1 5 25% 5830 77289 11612 32%
c i 25.89 30 183 0 36 12098 21 143543 18471 2.9 22 8 1 5 25% 5845 77289 11611 32%
c i 26.62 30 183 0 36 12496 21 147043 21684 3.0 23 8 1 5 26% 5859 77287 11609 32%
c - 26.81 30 182 0 37 12575 21 147810 19085 3.0 23 8 1 5 26% 5850 77287 11609 32%
c i 26.89 30 182 0 37 12620 21 148035 19288 3.0 23 8 1 5 26% 5857 77287 11608 32%
c i 26.93 30 182 0 37 12652 21 148294 19511 3.0 23 8 1 5 26% 5864 77287 11607 32%
c i 27.11 30 179 0 37 12746 21 150795 21724 3.0 23 8 1 5 25% 5874 77287 11606 32%
c i 27.39 30 179 0 37 12931 21 152519 23314 3.0 23 8 1 5 25% 5884 77287 11605 32%
c i 27.41 30 179 0 37 12953 21 152618 23405 3.0 23 8 1 5 25% 5885 77287 11602 32%
c i 27.52 30 178 0 37 13032 21 153233 23968 3.0 23 8 1 5 25% 5890 77287 11601 32%
c i 27.52 30 178 0 37 13038 21 153305 24039 3.0 23 8 1 5 25% 5890 77287 11599 32%
c - 27.61 30 178 0 38 13089 21 153892 20470 3.0 23 8 1 5 25% 5869 77287 11599 32%
c i 27.80 30 177 0 38 13218 21 155089 21601 3.0 23 8 1 5 26% 5874 77287 11598 32%
c i 28.02 30 176 0 38 13356 21 156642 23073 2.9 23 8 1 5 26% 5878 77286 11597 32%
c i 28.06 30 175 0 38 13389 21 157059 23456 2.9 23 8 1 5 26% 5880 77286 11596 32%
c i 28.11 30 175 0 38 13426 21 157520 23881 2.9 23 8 1 5 26% 5883 77286 11595 32%
c s 28.17 30 175 0 38 13461 21 157910 24255 2.9 23 8 1 5 26% 5888 75048 11595 32%
c
c  seconds   switched      rate          size/glue tier1    binary        remaining
c         MB   reductions    conflicts         size  tier2     irredundant
c           level   restarts        redundant    glue   trail        variables
c
c e 28.29 30 175 0 38 13461 21 157910 24255 2.9 23 8 1 5 26% 3373 87434 9955 27%
c 2 28.29 30 175 0 38 13461 21 157910 24255 2.9 23 8 1 5 26% 3369 87434 9955 27%
c s 28.31 30 175 0 38 13461 21 157910 24255 2.9 23 8 1 5 26% 3389 86070 9955 27%
c e 28.33 30 175 0 38 13461 21 157910 24255 2.9 23 8 1 5 26% 3312 86350 9902 27%
c ^ 28.33 30 175 0 38 13461 21 157910 24255 2.9 23 8 1 5 26% 3312 86350 9902 27%
c i 28.47 30 174 0 38 13551 21 158859 17539 2.9 23 8 1 5 26% 3322 86350 9900 27%
c i 28.54 30 174 0 38 13578 21 159538 18153 2.9 23 8 1 5 26% 3325 86350 9898 27%
c - 28.60 30 173 0 39 13618 21 160057 15912 2.9 23 8 1 5 26% 3322 86309 9898 27%
c i 28.66 30 173 0 39 13658 21 160569 16361 2.9 23 8 1 5 26% 3329 86308 9897 27%
c o 28.67 30 173 0 39 13659 21 160582 16374 2.9 23 8 1 5 26% 3329 86308 9897 27%
c i 28.88 30 170 0 39 13818 20 163191 18781 2.9 23 8 1 5 25% 3333 86307 9894 27%
c i 28.92 30 169 0 39 13837 20 163831 19318 2.9 22 8 1 5 25% 3340 86307 9893 27%
c i 29.00 30 169 0 39 13886 20 164670 20062 2.9 22 8 1 5 25% 3349 86307 9892 27%
c c 29.04 30 168 0 39 13890 20 164846 20225 2.9 22 8 1 5 25% 3338 86258 9886 27%
c d 29.05 30 168 0 39 13890 20 164846 19999 2.9 22 8 1 5 25% 3346 86240 9886 27%
c d 29.05 30 168 0 39 13890 20 164846 19993 2.9 22 8 1 5 25% 3328 86240 9877 27%
c u 29.09 30 168 0 39 13890 20 164846 17770 2.9 22 8 1 5 25% 3349 86240 9877 27%
c v 29.17 30 168 0 39 13890 20 164846 14601 2.9 22 8 1 5 25% 3353 86240 9877 27%
c w 29.35 30 168 0 39 13890 20 164846 14106 2.9 22 8 1 5 25% 3353 86240 9877 27%
c = 29.82 30 168 0 39 13890 20 164846 14106 2.9 22 8 1 5 25% 3422 86122 9835 27%
c
c  seconds   switched      rate          size/glue tier1    binary        remaining
c         MB   reductions    conflicts         size  tier2     irredundant
c           level   restarts        redundant    glue   trail        variables
c
c d 29.82 30 168 0 39 13890 20 164846 13952 2.9 22 8 1 5 25% 3352 86120 9835 27%
c t 29.83 30 168 0 39 13890 20 164846 13952 2.9 22 8 1 5 25% 3304 86120 9835 27%
c f 29.93 30 168 0 39 13890 20 164846 13952 2.9 22 8 1 5 25% 3328 85807 9849 27%
c u 29.97 30 168 0 39 13890 20 164846 13526 2.9 22 8 1 5 25% 3331 85807 9849 27%
c v 30.02 30 168 0 39 13890 20 164846 12985 2.9 22 8 1 5 25% 3334 85807 9849 27%
c w 30.15 30 168 0 39 13890 20 164846 12825 2.9 22 8 1 5 25% 3334 85807 9849 27%
c x 30.26 30 168 0 39 13890 20 164846 12793 2.9 22 8 1 5 25% 3355 84006 9849 27%
c = 30.73 30 168 0 39 13890 20 164846 12793 2.9 22 8 1 5 25% 3384 83967 9831 27%
c d 30.73 30 168 0 39 13890 20 164846 12714 2.9 22 8 1 5 25% 3357 83966 9831 27%
c t 30.74 30 168 0 39 13890 20 164846 12714 2.9 22 8 1 5 25% 3336 83966 9831 27%
c i 30.80 30 168 0 39 13916 20 165660 13400 2.9 22 8 1 5 25% 3355 83964 9829 27%
c i 30.81 30 167 0 39 13922 20 165993 13686 2.9 22 8 1 5 25% 3364 83964 9828 27%
c i 30.81 30 167 0 39 13925 20 166086 13754 2.9 22 8 1 5 25% 3368 83964 9825 27%
c - 30.82 30 167 0 40 13930 20 166302 11706 2.9 22 8 1 5 25% 3340 83962 9825 27%
c i 30.82 30 167 0 40 13930 20 166421 11780 2.9 22 8 1 5 25% 3349 83962 9824 27%
c i 30.83 30 166 0 40 13936 20 166705 12025 2.9 22 8 1 5 25% 3356 83962 9823 27%
c i 30.83 30 165 0 40 13936 20 167229 12393 2.9 22 8 1 5 25% 3383 83962 9819 27%
c i 30.83 30 165 0 40 13936 20 167230 12393 2.9 22 8 1 5 25% 3383 83962 9816 27%
c i 30.84 30 165 0 40 13939 20 167341 12488 2.9 22 8 1 5 25% 3389 83962 9815 27%
c i 30.84 30 165 0 40 13939 20 167348 12489 2.9 22 8 1 5 25% 3391 83962 9795 27%
c
c  seconds   switched      rate          size/glue tier1    binary        remaining
c         MB   reductions    conflicts         size  tier2     irredundant
c           level   restarts        redundant    glue   trail        variables
c
c i 30.84 30 165 0 40 13939 20 167354 12490 2.9 22 8 1 5 25% 3393 83962 9788 27%
c i 30.84 30 165 0 40 13939 20 167356 12490 2.9 22 8 1 5 25% 3394 83962 9775 27%
c i 30.84 30 165 0 40 13939 20 167361 12491 2.9 22 8 1 5 25% 3396 83962 9734 27%
c i 30.84 30 165 0 40 13939 20 167362 12491 2.9 22 8 1 5 25% 3396 83962 9733 27%
c i 30.84 30 165 0 40 13939 20 167363 12491 2.9 22 8 1 5 25% 3396 83962 9727 27%
c } 30.84 30 165 0 40 13939 20 167365 12491 2.9 22 8 1 5 25% 3396 83962 9697 27%
c 0 30.84 30 165 0 40 13939 20 167365 12491 2.9 22 8 1 5 25% 3396 83962 9697 27%
c
c ---- [ result ] ------------------------------------------------------------
c
s UNSATISFIABLE
c
c ---- [ profiling ] ---------------------------------------------------------
c
c          21.01   68.15 %  search
c          21.01   68.15 %  focused
c           9.47   30.70 %  simplify
c           8.95   29.02 %  probe
c           3.92   12.70 %  sweep
c           3.32   10.77 %  vivify
c           0.71    2.31 %  eliminate
c           0.69    2.23 %  factor
c           0.47    1.52 %  congruence
c           0.41    1.33 %  substitute
c           0.31    1.00 %  preprocess
c           0.18    0.60 %  reduce
c           0.13    0.42 %  subsume
c           0.11    0.35 %  fastel
c           0.10    0.33 %  transitive
c           0.05    0.15 %  backbone
c           0.03    0.08 %  lucky
c           0.02    0.07 %  parse
c =============================================
c          30.84  100.00 %  total
c
c ---- [ statistics ] --------------------------------------------------------
c
c chronological:                         5396                3 %  conflicts
c conflicts:                           167365             5427.62 per second
c congruent:                             3843               11 %  variables
c decisions:                          3328575               19.89 per conflict
c eliminated:                           20068               55 %  variables
c factored:                              3618               10 %  variables
c fast_eliminated:                      11111               55 %  eliminated
c fast_strengthened:                       13                0 %  per strengthened
c fast_subsumed:                           77                0 %  per subsumed
c iterations:                              35                0 %  variables
c propagations:                     139821267          4534378    per second
c reductions:                              40             4184    interval
c reordered:                                6            27894    interval
c restarts:                             13939               12    interval
c strengthened:                          5708                0 %  checks
c substituted:                          10196               28 %  variables
c subsumed:                             18532                0 %  checks
c switched:                                 0                0    interval
c vivified:                             84800               15 %  checks
c
c ---- [ glue usage ] --------------------------------------------------------
c
c focused glue 1 used 288900 clauses 60.51% accumulated 60.51% tier1
c focused glue 2 used  90575 clauses 18.97% accumulated 79.48%
c focused glue 3 used  29223 clauses  6.12% accumulated 85.60%
c focused glue 4 used  17620 clauses  3.69% accumulated 89.29%
c focused glue 5 used  11776 clauses  2.47% accumulated 91.75% tier2
c
c ---- [ resources ] ---------------------------------------------------------
c
c maximum-resident-set-size:         31834112 bytes         30 MB
c process-time:                            31s              30.84 seconds
c
c ---- [ shutting down ] -----------------------------------------------------
c
c exit 20
